
Gurobi 9.1.2 (linux64) logging started Sun Jul 16 16:05:55 2023

Changed value of parameter LogFile to Bruhat_r=0.log
   Prev:   Default: 
Changed value of parameter MIPFocus to 1
   Prev: 0  Min: 0  Max: 3  Default: 0
Warning: variables 0 and 120 have the same name "X[2,1]"
Warning: linear constraint 150 and linear constraint 151 have the same name "weight-constr-t5"
Warning: to let Gurobi read it back, use rlp format
Gurobi Optimizer version 9.1.2 build v9.1.2rc0 (linux64)
Thread count: 16 physical cores, 32 logical processors, using up to 32 threads
Optimize a model with 857 rows, 720 columns and 2496 nonzeros
Model fingerprint: 0x6f299252
Variable types: 144 continuous, 576 integer (576 binary)
Coefficient statistics:
  Matrix range     [1e+00, 1e+02]
  Objective range  [2e-01, 2e-01]
  Bounds range     [1e+00, 6e+01]
  RHS range        [1e+00, 1e+02]
Presolve removed 78 rows and 90 columns
Presolve time: 0.01s
Presolved: 779 rows, 630 columns, 2736 nonzeros
Variable types: 138 continuous, 492 integer (492 binary)

Root relaxation: objective 2.300000e+01, 99 iterations, 0.00 seconds

    Nodes    |    Current Node    |     Objective Bounds      |     Work
 Expl Unexpl |  Obj  Depth IntInf | Incumbent    BestBd   Gap | It/Node Time

     0     0   23.00000    0   42          -   23.00000      -     -    0s
     0     0   23.00000    0  143          -   23.00000      -     -    0s
     0     0   23.00000    0  136          -   23.00000      -     -    0s
     0     0   23.00000    0   64          -   23.00000      -     -    0s
     0     0   23.00000    0   79          -   23.00000      -     -    0s
H    0     0                     164.5000000   23.00000  86.0%     -    0s
H    0     0                     164.0000000   23.00000  86.0%     -    0s
H    0     0                     158.8333333   23.00000  85.5%     -    0s
H    0     0                     158.3333333   23.00000  85.5%     -    0s
H    0     0                     142.6666667   23.00000  83.9%     -    0s
H    0     0                     142.5000000   23.00000  83.9%     -    0s
H    0     0                     137.1666667   23.00000  83.2%     -    0s
H    0     0                     136.5000000   23.00000  83.2%     -    0s
H    0     0                     136.1666667   23.00000  83.1%     -    0s
H    0     0                     135.8333333   23.00000  83.1%     -    0s
H    0     0                     127.1666667   23.00000  81.9%     -    0s
     0     0   23.00000    0   81  127.16667   23.00000  81.9%     -    0s
H    0     0                     107.3333333   23.00000  78.6%     -    0s
     0     0   23.00000    0   92  107.33333   23.00000  78.6%     -    0s
H    0     0                      78.0000000   23.00000  70.5%     -    0s
H    0     0                      77.6666667   23.00000  70.4%     -    0s
H    0     0                      77.5000000   23.00000  70.3%     -    0s
H    0     0                      77.0000000   23.00000  70.1%     -    0s
     0     0   23.00000    0   77   77.00000   23.00000  70.1%     -    0s
H    0     0                      76.8333333   23.00000  70.1%     -    0s
     0     0   23.00000    0   90   76.83333   23.00000  70.1%     -    0s
     0     0   23.00000    0   88   76.83333   23.00000  70.1%     -    0s
H    0     0                      76.0000000   23.00000  69.7%     -    0s
H    0     0                      75.8333333   23.00000  69.7%     -    0s
H    0     2                      74.6666667   23.00000  69.2%     -    0s
     0     2   23.00000    0   61   74.66667   23.00000  69.2%     -    0s
H   39    40                      74.5555556   23.00000  69.2%  38.5    0s
H   43    40                      74.5000000   23.00000  69.1%  36.5    0s
H   81    98                      74.3333333   23.00000  69.1%  38.2    0s
H   84    98                      73.8333333   23.00000  68.8%  37.4    0s
H   90    98                      73.6666667   23.00000  68.8%  35.4    0s
H  139   145                      73.3333333   23.00000  68.6%  29.2    1s
H  147   145                      71.3333333   23.00000  67.8%  28.3    1s
H  913   835                      69.2500000   23.00000  66.8%  17.5    1s
H  940  1408                      68.8333333   23.00000  66.6%  17.3    1s
H 1098  1408                      68.7500000   23.00000  66.5%  17.1    1s
H 1180  1408                      68.6666667   23.00000  66.5%  17.6    1s
H 1619  1446                      68.5000000   23.00000  66.4%  16.7    1s
H 1666  1446                      68.3333333   23.00000  66.3%  16.8    1s
  3806  3026   23.00000   15  142   68.33333   23.00000  66.3%  24.1    5s
H 3822  2874                      67.0000000   23.00000  65.7%  24.7    5s
H 3870  2782                      66.5000000   23.00000  65.4%  25.6    7s
  4294  3064   23.00000   21   99   66.50000   23.00000  65.4%  35.5   10s
H 4329  2952                      66.3333333   23.00000  65.3%  36.0   13s
  5004  3509   23.00000   33   77   66.33333   23.00000  65.3%  42.3   15s
H 5355  3343                      66.1666667   23.00000  65.2%  46.6   17s
H 5771  3577                      66.0000000   23.00000  65.2%  52.9   18s
  6481  3819   24.33333   54   70   66.00000   23.00000  65.2%  62.0   21s
H 6553  3681                      65.9999999   23.00000  65.2%  63.4   21s
  7598  4188   60.87985   81   27   66.00000   23.00000  65.2%  71.8   25s
H 7608  4077                      65.9999994   23.00000  65.2%  71.8   25s
H 7935  4483                      65.9999961   23.00000  65.2%  75.5   26s
H 8400  4536                      65.9999954   23.00000  65.2%  79.1   29s
  8911  5593   29.33333   32  120   66.00000   23.00000  65.2%  81.8   31s
H 9780  5481                      65.9999913   23.00000  65.2%  84.4   31s
 10637  5513   51.53894   34   89   65.99999   23.00000  65.2%  86.1   37s
 12062  6705   23.00000   30  151   65.99999   23.00000  65.2%  89.4   41s
 16558 10136   62.60189   43  102   65.99999   23.00000  65.2%  95.7   48s
 18533 11483   23.00000   32   92   65.99999   23.00000  65.2%  98.6   52s
 20916 14037   39.42344   46  147   65.99999   23.00000  65.2%   101   55s
 24317 14226   63.05375   35   99   65.99999   23.00000  65.2%   107   60s
 26821 17371   53.84746   65   56   65.99999   23.00000  65.2%   109   68s
 29131 18113     cutoff   50        65.99999   23.00000  65.2%   111   73s
 30554 25796   43.48100   61   95   65.99999   23.00000  65.2%   110   82s
 42682 27458   42.72181   90   72   65.99999   23.00000  65.2%   113   86s
 45024 27538   53.62341   60  130   65.99999   23.00000  65.2%   113   90s
 45104 30636   58.36381   61  119   65.99999   23.00000  65.2%   113   95s
 49101 34654   55.32292   63   72   65.99999   23.00000  65.2%   115  100s
 58351 36805   23.00000   33  144   65.99999   23.00000  65.2%   116  106s

Cutting planes:
  Learned: 105
  Gomory: 13
  Cover: 132
  Implied bound: 112
  Clique: 31
  MIR: 416
  StrongCG: 6
  Flow cover: 563
  GUB cover: 13
  RLT: 26
  Relax-and-lift: 279

Explored 58386 nodes (6780679 simplex iterations) in 106.16 seconds
Thread count was 32 (of 32 available processors)

Solution count 10: 66 66 66 ... 68.6667

Solve interrupted
Best objective 6.599997746497e+01, best bound 2.300000000000e+01, gap 65.1515%

Gurobi 9.1.2 (linux64) logging started Sun Jul 16 16:12:28 2023

Changed value of parameter LogFile to Bruhat_r=0.log
   Prev:   Default: 
Changed value of parameter MIPFocus to 1
   Prev: 0  Min: 0  Max: 3  Default: 0
Warning: variables 0 and 120 have the same name "X[13,15]"
Warning: linear constraint 150 and linear constraint 151 have the same name "weight-constr-t5"
Warning: to let Gurobi read it back, use rlp format
Gurobi Optimizer version 9.1.2 build v9.1.2rc0 (linux64)
Thread count: 16 physical cores, 32 logical processors, using up to 32 threads
Optimize a model with 857 rows, 720 columns and 2496 nonzeros
Model fingerprint: 0x000c5765
Variable types: 144 continuous, 576 integer (576 binary)
Coefficient statistics:
  Matrix range     [1e+00, 1e+02]
  Objective range  [2e-01, 2e-01]
  Bounds range     [1e+00, 6e+01]
  RHS range        [1e+00, 1e+02]
Presolve removed 78 rows and 90 columns
Presolve time: 0.01s
Presolved: 779 rows, 630 columns, 2736 nonzeros
Variable types: 138 continuous, 492 integer (492 binary)

Root relaxation: objective 2.300000e+01, 100 iterations, 0.00 seconds

    Nodes    |    Current Node    |     Objective Bounds      |     Work
 Expl Unexpl |  Obj  Depth IntInf | Incumbent    BestBd   Gap | It/Node Time

     0     0   23.00000    0   40          -   23.00000      -     -    0s
     0     0   23.00000    0  130          -   23.00000      -     -    0s
     0     0   23.00000    0  118          -   23.00000      -     -    0s
     0     0   23.00000    0   53          -   23.00000      -     -    0s
     0     0   23.00000    0   55          -   23.00000      -     -    0s
     0     0   23.00000    0   76          -   23.00000      -     -    0s
     0     0   23.00000    0   85          -   23.00000      -     -    0s
     0     0   23.00000    0   70          -   23.00000      -     -    0s
H    0     0                     140.3333333   23.00000  83.6%     -    0s
H    0     0                     137.8333333   23.00000  83.3%     -    0s
H    0     0                     137.6666667   23.00000  83.3%     -    0s
H    0     0                     137.1666667   23.00000  83.2%     -    0s
     0     0   23.00000    0   75  137.16667   23.00000  83.2%     -    0s
H    0     0                     134.6666667   23.00000  82.9%     -    0s
H    0     0                     134.5000000   23.00000  82.9%     -    0s
H    0     0                     129.0000000   23.00000  82.2%     -    0s
H    0     0                     127.3333333   23.00000  81.9%     -    0s
     0     0   23.00000    0   54  127.33333   23.00000  81.9%     -    0s
H    0     0                      86.1666667   23.00000  73.3%     -    0s
H    0     0                      85.0000000   23.00000  72.9%     -    0s
     0     2   23.00000    0   54   85.00000   23.00000  72.9%     -    0s
H    7     8                      84.8333333   23.00000  72.9%  65.4    0s
H    9     8                      84.5000000   23.00000  72.8%  60.2    0s
H   18    16                      84.3333333   23.00000  72.7%  43.2    0s
H   35    48                      83.8333333   23.00000  72.6%  36.2    0s
H   37    48                      83.1666667   23.00000  72.3%  37.3    0s
H   54    64                      83.0000000   23.00000  72.3%  30.3    0s
H   55    64                      77.6666667   23.00000  70.4%  29.8    0s
H   83    99                      75.5000000   23.00000  69.5%  23.2    1s
H   85    99                      74.0000000   23.00000  68.9%  22.7    1s
H  134   153                      73.5000000   23.00000  68.7%  19.9    1s
H  134   153                      71.6666667   23.00000  67.9%  19.9    1s
H  135   153                      71.5000000   23.00000  67.8%  19.8    1s
H  137   153                      69.8333333   23.00000  67.1%  19.8    1s
H  428   434                      69.0000000   23.00000  66.7%  16.7    2s
H  429   434                      68.6666667   23.00000  66.5%  16.7    2s
H  429   434                      68.5000000   23.00000  66.4%  16.7    2s
H  433   434                      68.3333333   23.00000  66.3%  16.6    2s
H  435   434                      68.1666667   23.00000  66.3%  16.5    2s
H  471   822                      67.8333333   23.00000  66.1%  16.2    2s
H  794   822                      67.6666667   23.00000  66.0%  15.4    2s
H  925  1133                      67.5000000   23.00000  65.9%  15.2    3s
  2900  2353   23.33333   12   78   67.50000   23.00000  65.9%  13.5    5s
H 3024  2339                      66.8333333   23.00000  65.6%  25.2    8s
  3088  2382   23.00000   16  141   66.83333   23.00000  65.6%  27.9   13s
  3477  2627   23.00000   21  134   66.83333   23.00000  65.6%  44.6   15s
H 4204  2867                      66.8333332   23.00000  65.6%  51.7   18s
H 4330  2960                      66.8333330   23.00000  65.6%  53.5   19s
  4666  2877   23.50000   35  111   66.83333   23.00000  65.6%  56.3   20s
H 6401  3719                      66.8333329   23.00000  65.6%  71.3   24s
  6574  4368   57.66667   58   41   66.83333   23.00000  65.6%  72.3   26s
H 6600  4262                      66.8333328   23.00000  65.6%  72.1   26s
H 6604  4170                      66.8333326   23.00000  65.6%  72.1   26s
H 6861  3997                      66.8333310   23.00000  65.6%  73.9   26s
H 6888  3905                      66.8333309   23.00000  65.6%  73.8   26s
H 7367  3913                      66.8333304   23.00000  65.6%  76.5   28s
H 7504  3905                      66.8333304   23.00000  65.6%  76.6   28s
H 7623  3905                      66.8333299   23.00000  65.6%  76.7   28s
H 7679  4855                      66.8333281   23.00000  65.6%  77.0   29s
H 7777  4855                      66.8333281   23.00000  65.6%  77.4   29s
H 8331  4855                      66.8333280   23.00000  65.6%  78.3   29s
H 8941  4885                      66.8333278   23.00000  65.6%  79.0   33s
H 8943  4885                      66.8333278   23.00000  65.6%  79.1   33s
H 8947  4885                      66.8333277   23.00000  65.6%  79.1   33s
H 8952  4885                      66.8333277   23.00000  65.6%  79.1   33s
H 8970  4885                      66.8333276   23.00000  65.6%  79.2   33s
  8973  5749   27.81828   25  102   66.83333   23.00000  65.6%  79.3   35s
H 9305  5749                      66.8333276   23.00000  65.6%  80.1   35s
H 9740  5749                      66.8333276   23.00000  65.6%  79.5   35s
 11884  6911   65.06402   50   46   66.83333   23.00000  65.6%  79.8   41s
H11887  6911                      66.8333275   23.00000  65.6%  79.9   41s
 12057  7823   65.63766   52   54   66.83333   23.00000  65.6%  80.0   45s
H12778  7823                      66.8333275   23.00000  65.6%  82.0   45s
 15909 10499   39.39584   26   79   66.83333   23.00000  65.6%  86.4   52s
 17600 11769   23.50000   31  133   66.83333   23.00000  65.6%  88.4   56s
 20780 13093   23.04444   38  116   66.83333   23.00000  65.6%  88.1   63s
 20814 14776   23.12979   39  101   66.83333   23.00000  65.6%  88.2   65s
 24300 15438   23.39436   48  115   66.83333   23.00000  65.6%  88.6   72s
 25326 17746   23.18713   51  113   66.83333   23.00000  65.6%  87.8   75s
 30813 22919   23.16667   36   89   66.83333   23.00000  65.6%  89.8   83s
 35407 24083   37.05817   38  114   66.83333   23.00000  65.6%  92.1   86s
 36893 25772   55.08603   58   66   66.83333   23.00000  65.6%  92.9   91s
H38526 25772                      66.8333274   23.00000  65.6%  93.1   91s
 39397 26014   23.00000   35  128   66.83333   23.00000  65.6%  93.1   98s
H39400 26014                      66.8333272   23.00000  65.6%  93.1   98s
H39652 26014                      66.8333272   23.00000  65.6%  93.2   98s
 39710 30244   23.00661   39  112   66.83333   23.00000  65.6%  93.2  102s
 45742 32528   23.33333   27  117   66.83333   23.00000  65.6%  94.0  107s
 49357 32814   25.60696   54   92   66.83333   23.00000  65.6%  94.2  112s
 49857 35454   24.08312   54   87   66.83333   23.00000  65.6%  94.2  117s
 54596 38195     cutoff   99        66.83333   23.00000  65.6%  93.7  122s
H57104 38172                      66.6666667   23.00000  65.5%  93.4  123s
 58902 38203   60.66667   59   41   66.66667   23.00000  65.5%  93.2  131s
H58903 38084                      66.0000000   23.00000  65.2%  93.2  131s
 58934 40989   60.66667   60   39   66.00000   23.00000  65.2%  93.2  136s
 64859 44468   35.72348   61   87   66.00000   23.00000  65.2%  92.0  142s
H65491 44468                      65.9999974   23.00000  65.2%  92.1  142s
H68450 44468                      65.9999965   23.00000  65.2%  92.3  142s
 69746 50946   35.66667   79   57   66.00000   23.00000  65.2%  92.3  147s
H70193 50946                      65.9999895   23.00000  65.2%  92.1  147s

Cutting planes:
  Learned: 107
  Gomory: 21
  Cover: 134
  Implied bound: 111
  Clique: 59
  MIR: 379
  StrongCG: 5
  Flow cover: 521
  GUB cover: 9
  Zero half: 2
  RLT: 33
  Relax-and-lift: 327

Explored 78826 nodes (7244791 simplex iterations) in 147.68 seconds
Thread count was 32 (of 32 available processors)

Solution count 10: 66 66 66 ... 66.8333

Solve interrupted
Best objective 6.599994779331e+01, best bound 2.300000000000e+01, gap 65.1515%

Gurobi 9.1.2 (linux64) logging started Sun Jul 16 16:18:22 2023

Changed value of parameter LogFile to Bruhat_r=0.log
   Prev:   Default: 
Changed value of parameter MIPFocus to 1
   Prev: 0  Min: 0  Max: 3  Default: 0
Warning: variables 0 and 120 have the same name "X[18,15]"
Warning: linear constraint 156 and linear constraint 157 have the same name "weight-constr-t5"
Warning: to let Gurobi read it back, use rlp format
Gurobi Optimizer version 9.1.2 build v9.1.2rc0 (linux64)
Thread count: 16 physical cores, 32 logical processors, using up to 32 threads
Optimize a model with 863 rows, 720 columns and 2502 nonzeros
Model fingerprint: 0xccbec5f1
Variable types: 144 continuous, 576 integer (576 binary)
Coefficient statistics:
  Matrix range     [1e+00, 1e+02]
  Objective range  [2e-01, 2e-01]
  Bounds range     [1e+00, 6e+01]
  RHS range        [1e+00, 1e+02]
Presolve removed 84 rows and 90 columns
Presolve time: 0.01s
Presolved: 779 rows, 630 columns, 2736 nonzeros
Variable types: 138 continuous, 492 integer (492 binary)

Root relaxation: objective 2.300000e+01, 99 iterations, 0.00 seconds

    Nodes    |    Current Node    |     Objective Bounds      |     Work
 Expl Unexpl |  Obj  Depth IntInf | Incumbent    BestBd   Gap | It/Node Time

     0     0   23.00000    0   40          -   23.00000      -     -    0s
     0     0   23.00000    0  155          -   23.00000      -     -    0s
     0     0   23.00000    0  149          -   23.00000      -     -    0s
     0     0   23.00000    0   65          -   23.00000      -     -    0s
     0     0   23.00000    0   69          -   23.00000      -     -    0s
H    0     0                     131.6666667   23.00000  82.5%     -    0s
H    0     0                     131.0000000   23.00000  82.4%     -    0s
H    0     0                     120.5000000   23.00000  80.9%     -    0s
H    0     0                     120.0000000   23.00000  80.8%     -    0s
H    0     0                     115.6666667   23.00000  80.1%     -    0s
H    0     0                     113.0000000   23.00000  79.6%     -    0s
H    0     0                     110.7777778   23.00000  79.2%     -    0s
H    0     0                     105.5000000   23.00000  78.2%     -    0s
H    0     0                     104.6666667   23.00000  78.0%     -    0s
H    0     0                     102.1666667   23.00000  77.5%     -    0s
H    0     0                      96.0000000   23.00000  76.0%     -    0s
     0     0   23.00000    0   83   96.00000   23.00000  76.0%     -    0s
H    0     0                      95.6666667   23.00000  76.0%     -    0s
     0     0   23.00000    0   80   95.66667   23.00000  76.0%     -    0s
H    0     0                      83.3333333   23.00000  72.4%     -    0s
H    0     0                      82.0000000   23.00000  72.0%     -    0s
     0     0   23.00000    0   83   82.00000   23.00000  72.0%     -    0s
     0     0   23.00000    0   81   82.00000   23.00000  72.0%     -    0s
H    0     0                      81.8333333   23.00000  71.9%     -    0s
     0     0   23.00000    0   52   81.83333   23.00000  71.9%     -    0s
H    0     0                      81.5000000   23.00000  71.8%     -    0s
H    0     2                      79.0000000   23.00000  70.9%     -    0s
     0     2   23.00000    0   51   79.00000   23.00000  70.9%     -    0s
H    5     8                      78.0000000   23.00000  70.5%  79.8    0s
H    9    16                      77.8333333   23.00000  70.4%  73.3    0s
H   33    39                      77.6666667   23.00000  70.4%  60.5    0s
H   82    91                      77.5000000   23.00000  70.3%  46.2    0s
H   86    91                      74.5000000   23.00000  69.1%  44.3    0s
H  130   134                      72.0000000   23.00000  68.1%  68.5    2s
H  131   134                      70.8333333   23.00000  67.5%  68.0    2s
H  132   134                      69.3333333   23.00000  66.8%  68.2    2s
H  135   134                      69.1666667   23.00000  66.7%  67.2    2s
H  141   134                      68.6666667   23.00000  66.5%  65.3    2s
H  142   134                      68.3333333   23.00000  66.3%  65.1    2s
H  339   352                      67.8333333   23.00000  66.1%  35.6    2s
H  473   729                      67.5000000   23.00000  65.9%  31.1    3s
H  499   729                      67.3333333   23.00000  65.8%  30.5    3s
H  800  1322                      66.6666667   23.00000  65.5%  27.1    4s
H  816  1322                      66.5000000   23.00000  65.4%  26.9    4s
H 1000  1322                      66.3333333   23.00000  65.3%  26.3    4s
  1568  1929   33.50000   14   89   66.33333   23.00000  65.3%  23.0    5s
H 2415  1838                      66.1666667   23.00000  65.2%  22.2    6s
H 2418  1747                      66.0000000   23.00000  65.2%  22.2    6s
  2578  1887   23.00000   16  144   66.00000   23.00000  65.2%  38.1   13s
H 2579  1800                      65.9999998   23.00000  65.2%  38.1   13s
H 2668  1773                      65.9999997   23.00000  65.2%  42.2   14s
  2701  1821   23.00000   18  151   66.00000   23.00000  65.2%  42.6   15s
H 3062  1997                      65.9999987   23.00000  65.2%  52.5   16s
H 3207  2095                      65.9999986   23.00000  65.2%  55.0   18s
H 3280  2000                      65.9999986   23.00000  65.2%  57.3   18s
H 3463  1898                      65.9999986   23.00000  65.2%  61.0   19s
  3483  2404   24.55470   26   75   66.00000   23.00000  65.2%  61.5   22s
H 3742  2254                      65.9999983   23.00000  65.2%  65.5   22s
H 4118  2067                      65.9999983   23.00000  65.2%  68.6   22s
  5175  2513   38.35254   53   78   66.00000   23.00000  65.2%  80.9   27s
H 5179  2454                      65.9999983   23.00000  65.2%  80.9   27s
H 5211  2388                      65.9999982   23.00000  65.2%  81.6   27s
  6174  3457   23.00000   20  136   66.00000   23.00000  65.2%  87.9   30s
H 6214  3457                      65.9999982   23.00000  65.2%  88.7   30s

Cutting planes:
  Learned: 97
  Gomory: 16
  Cover: 142
  Implied bound: 107
  Clique: 49
  MIR: 306
  Flow cover: 482
  GUB cover: 7
  Zero half: 2
  Mod-K: 1
  RLT: 32
  Relax-and-lift: 360

Explored 8483 nodes (849804 simplex iterations) in 34.95 seconds
Thread count was 32 (of 32 available processors)

Solution count 10: 66 66 66 ... 66.6667

Solve interrupted
Best objective 6.599999821467e+01, best bound 2.300000000000e+01, gap 65.1515%
